241 5
10 10 10 10 10 

0 0 0 0 0 0 1 2 
0 0 0 0 0 0 3 3 4 12 
9 1 0 0 0 0 3 11 7 5 
8 1 0 0 0 0 4 10 9 7 6 
3 2 0 0 0 0 2 8 6 
6 3 0 0 0 0 1 13 
2 2 0 0 0 0 1 13 
4 3 0 0 0 0 1 13 
5 2 0 0 0 0 1 13 
3 4 0 0 0 0 1 13 
9 3 0 0 0 0 1 13 
1 4 0 0 0 0 1 13 
0 0 0 0 0 0 4 14 46 78 110 
0 0 0 0 0 0 7 15 16 19 20 23 43 44 
5 1 1 0 1 0 4 37 24 18 17 
5 1 2 0 2 0 4 42 41 38 21 
7 2 3 0 3 0 3 36 30 21 
5 1 4 0 3 0 4 39 33 27 22 
10 1 2 0 1 0 4 38 37 33 22 
8 2 2 0 2 0 6 40 38 35 26 24 222 
10 4 3 0 3 0 2 33 22 
5 1 2 0 3 0 3 34 29 25 
2 3 5 0 4 0 3 39 37 27 
5 2 4 0 3 0 3 36 33 31 
9 4 3 0 2 0 1 26 
3 4 2 0 1 0 1 28 
7 5 2 0 2 0 1 29 
1 1 1 0 2 0 1 31 
3 3 3 0 3 0 1 32 
1 3 5 0 3 0 1 35 
2 3 5 0 1 0 1 45 
1 1 3 0 3 0 1 45 
6 1 1 0 3 0 1 45 
10 4 1 0 4 0 1 45 
6 2 3 0 2 0 1 45 
7 2 1 0 2 0 1 45 
2 4 3 0 3 0 1 45 
9 2 1 0 3 0 1 45 
4 2 1 0 6 0 1 45 
10 6 2 0 1 0 1 45 
9 3 1 0 3 0 1 45 
2 2 3 0 2 0 1 45 
2 2 4 0 1 0 1 45 
4 3 2 0 3 0 1 45 
0 0 0 0 0 0 1 204 
0 0 0 0 0 0 6 47 48 49 50 51 76 
2 1 0 1 0 1 5 58 55 54 53 52 
10 3 0 2 0 3 5 75 56 55 54 52 
10 4 0 2 0 1 4 62 55 53 52 
4 3 0 2 0 1 4 58 55 54 52 
5 3 0 3 0 2 2 74 53 
1 3 0 3 0 1 3 64 60 57 
1 1 0 3 0 1 3 73 61 56 
2 2 0 3 0 1 6 72 71 70 67 64 62 
8 3 0 3 0 2 2 64 59 
6 1 0 3 0 2 1 59 
4 2 0 2 0 5 1 59 
8 3 0 3 0 2 1 59 
4 2 0 1 0 3 5 72 71 70 67 63 
10 3 0 4 0 1 5 73 71 70 69 63 
5 2 0 3 0 2 5 72 71 70 69 63 
8 2 0 1 0 3 2 73 63 
1 2 0 3 0 1 1 65 
9 3 0 5 0 3 2 73 69 
5 3 0 3 0 3 1 66 
10 1 0 2 0 3 1 68 
1 3 0 1 0 2 1 69 
6 1 0 3 0 5 1 77 
10 3 0 2 0 3 1 77 
2 3 0 4 0 2 2 77 138 
7 4 0 2 0 3 1 77 
9 3 0 4 0 4 1 77 
8 2 0 3 0 7 1 77 
4 5 0 1 0 3 1 77 
9 1 0 2 0 3 1 77 
4 3 0 1 0 2 1 77 
0 0 0 0 0 0 1 204 
0 0 0 0 0 0 6 79 80 81 82 83 108 
8 1 0 0 1 1 4 91 86 85 84 
6 1 0 0 3 2 5 100 91 90 85 84 
3 1 0 0 2 3 4 91 89 85 84 
8 2 0 0 2 1 3 94 86 84 
10 2 0 0 1 6 4 107 94 88 86 
3 7 0 0 2 2 3 93 88 87 
3 1 0 0 3 2 3 95 94 92 
2 3 0 0 1 1 2 90 89 
7 4 0 0 1 2 2 95 92 
9 1 0 0 1 1 1 92 
7 3 0 0 1 3 1 92 
9 2 0 0 3 5 1 92 
10 3 0 0 1 2 1 92 
3 1 0 0 4 1 6 106 105 104 102 99 96 
6 1 0 0 3 3 4 105 99 96 95 
7 2 0 0 2 3 3 103 102 96 
5 2 0 0 7 2 3 104 103 102 
7 4 0 0 1 3 2 97 161 
10 1 0 0 3 3 1 98 
6 3 0 0 4 1 1 101 
7 3 0 0 3 2 1 103 
4 2 0 0 4 1 1 102 
3 6 0 0 4 6 1 109 
1 2 0 0 4 3 1 109 
7 2 0 0 4 3 1 109 
7 2 0 0 1 3 1 109 
5 4 0 0 1 3 1 109 
2 1 0 0 3 1 1 109 
2 2 0 0 2 2 1 109 
7 6 0 0 3 4 1 109 
0 0 0 0 0 0 1 204 
0 0 0 0 0 0 3 111 112 116 
1 0 0 0 0 1 3 115 114 113 
9 0 0 0 0 2 3 120 115 114 
8 0 0 0 0 2 4 120 119 118 117 
1 0 0 0 0 3 2 119 117 
4 0 0 0 0 3 2 118 117 
1 0 0 0 0 4 2 118 117 
8 0 0 0 0 4 1 121 
9 0 0 0 0 3 1 121 
9 0 0 0 0 2 1 121 
10 0 0 0 0 1 1 121 
0 0 0 0 0 0 2 122 134 
0 0 0 0 0 0 3 123 124 125 
10 0 0 0 1 0 4 132 128 127 126 
3 0 0 0 1 0 3 131 129 127 
6 0 0 0 5 0 2 129 127 
3 0 0 0 5 0 2 130 129 
7 0 0 0 3 0 1 130 
8 0 0 0 4 0 1 129 
3 0 0 0 1 0 1 133 
7 0 0 0 1 0 1 133 
5 0 0 0 3 0 1 133 
2 0 0 0 1 0 1 133 
0 0 0 0 0 0 4 156 168 180 192 
0 0 0 0 0 0 9 135 136 137 138 139 140 143 145 148 
10 1 1 0 0 0 4 154 153 150 141 
4 3 5 0 0 0 4 153 152 147 144 
6 3 2 0 0 0 4 153 152 144 142 
1 1 3 0 0 0 3 153 152 142 
8 2 2 0 0 0 3 153 150 144 
8 4 4 0 0 0 3 152 147 146 
10 2 2 0 0 0 2 152 144 
10 3 1 0 0 0 3 151 150 146 
4 3 1 0 0 0 3 152 151 147 
7 4 1 0 0 0 2 151 146 
7 4 3 0 0 0 1 146 
7 1 3 0 0 0 1 149 
5 4 1 0 0 0 1 150 
3 2 3 0 0 0 1 149 
3 5 3 0 0 0 1 155 
6 1 2 0 0 0 1 155 
2 2 3 0 0 0 1 155 
7 1 4 0 0 0 1 155 
4 3 2 0 0 0 1 155 
1 1 4 0 0 0 1 155 
0 0 0 0 0 0 1 204 
0 0 0 0 0 0 4 157 158 159 161 
10 0 0 0 0 1 4 166 165 162 160 
3 0 0 0 0 2 3 166 165 160 
4 0 0 0 0 3 1 160 
1 0 0 0 0 3 2 164 163 
8 0 0 0 0 1 2 165 164 
2 0 0 0 0 2 1 163 
1 0 0 0 0 3 1 167 
7 0 0 0 0 2 1 167 
1 0 0 0 0 4 1 167 
4 0 0 0 0 4 1 167 
0 0 0 0 0 0 1 204 
0 0 0 0 0 0 2 169 170 
2 0 0 0 0 1 2 172 171 
4 0 0 0 0 6 1 171 
4 0 0 0 0 1 6 178 177 176 175 174 173 
6 0 0 0 0 3 6 178 177 176 175 174 173 
1 0 0 0 0 3 1 179 
2 0 0 0 0 3 1 179 
9 0 0 0 0 3 1 179 
1 0 0 0 0 3 1 179 
1 0 0 0 0 1 1 179 
7 0 0 0 0 1 1 179 
0 0 0 0 0 0 1 204 
0 0 0 0 0 0 5 181 182 183 185 190 
10 0 0 0 1 0 2 186 184 
6 0 0 0 3 0 2 189 188 
9 0 0 0 3 0 2 187 186 
3 0 0 0 3 0 1 187 
6 0 0 0 2 0 1 186 
2 0 0 0 3 0 1 191 
5 0 0 0 3 0 1 191 
6 0 0 0 1 0 1 191 
8 0 0 0 2 0 1 191 
7 0 0 0 4 0 1 191 
0 0 0 0 0 0 1 204 
0 0 0 0 0 0 3 193 194 197 
7 0 1 0 0 0 4 202 201 198 195 
2 0 1 0 0 0 2 200 196 
8 0 3 0 0 0 2 200 199 
4 0 3 0 0 0 2 199 198 
3 0 3 0 0 0 1 198 
2 0 3 0 0 0 1 203 
5 0 2 0 0 0 1 203 
7 0 1 0 0 0 1 203 
3 0 3 0 0 0 1 203 
7 0 5 0 0 0 1 203 
0 0 0 0 0 0 1 204 
0 0 0 0 0 0 3 205 217 229 
0 0 0 0 0 0 4 206 208 209 210 
9 0 0 1 0 0 4 215 214 213 207 
5 0 0 3 0 0 2 212 211 
10 0 0 2 0 0 2 214 212 
8 0 0 2 0 0 1 213 
10 0 0 2 0 0 1 211 
4 0 0 5 0 0 1 216 
2 0 0 1 0 0 1 216 
4 0 0 4 0 0 1 216 
4 0 0 3 0 0 1 216 
8 0 0 2 0 0 1 216 
0 0 0 0 0 0 1 241 
0 0 0 0 0 0 2 218 219 
3 0 0 0 1 0 3 227 221 220 
10 0 0 0 2 0 2 223 222 
2 0 0 0 3 0 3 226 225 224 
10 0 0 0 2 0 2 226 224 
4 0 0 0 1 0 2 225 224 
5 0 0 0 5 0 1 224 
2 0 0 0 1 0 1 228 
3 0 0 0 3 0 1 228 
9 0 0 0 4 0 1 228 
4 0 0 0 3 0 1 228 
0 0 0 0 0 0 1 241 
0 0 0 0 0 0 4 230 231 232 233 
9 0 0 0 1 0 3 238 235 234 
4 0 0 0 4 0 3 239 238 235 
9 0 0 0 2 0 2 238 235 
9 0 0 0 2 0 2 238 235 
9 0 0 0 2 0 3 239 237 236 
10 0 0 0 2 0 2 237 236 
10 0 0 0 2 0 1 240 
7 0 0 0 3 0 1 240 
9 0 0 0 3 0 1 240 
7 0 0 0 4 0 1 240 
0 0 0 0 0 0 1 241 
0 0 0 0 0 0 0 
